\ Model SPDP
\ LP format - for model browsing. Use MPS format to capture full model detail.
Minimize
  16 x_1_4_1 + 16 x_1_4_2 + 16 x_1_10_1 + 16 x_1_10_2 + 0 x_1_11_1
   + 0 x_1_11_2 + 16 x_2_3_1 + 16 x_2_3_2 + 16 x_2_9_1 + 16 x_2_9_2
   + 0 x_2_11_1 + 0 x_2_11_2 + 16 x_3_4_1 + 16 x_3_4_2 + 10 x_3_6_1
   + 10 x_3_6_2 + 16 x_3_7_1 + 16 x_3_7_2 + 16 x_3_8_1 + 16 x_3_8_2
   + 16 x_3_10_1 + 16 x_3_10_2 + 16 x_4_3_1 + 16 x_4_3_2 + 16 x_4_5_1
   + 16 x_4_5_2 + 4 x_4_7_1 + 4 x_4_7_2 + 16 x_4_9_1 + 16 x_4_9_2
   + 16 x_5_4_1 + 16 x_5_4_2 + 10 x_5_6_1 + 10 x_5_6_2 + 16 x_5_8_1
   + 16 x_5_8_2 + 16 x_5_10_1 + 16 x_5_10_2 + 0 x_5_11_2 + 10 x_6_3_1
   + 10 x_6_3_2 + 10 x_6_5_1 + 10 x_6_5_2 + 9 x_6_7_1 + 9 x_6_7_2
   + 10 x_6_9_1 + 10 x_6_9_2 + 0 x_6_11_1 + 4 x_7_4_1 + 4 x_7_4_2
   + 9 x_7_6_1 + 9 x_7_6_2 + 4 x_7_8_1 + 4 x_7_8_2 + 16 x_7_9_1
   + 16 x_7_9_2 + 4 x_7_10_1 + 4 x_7_10_2 + 16 x_8_3_1 + 16 x_8_3_2
   + 16 x_8_5_1 + 16 x_8_5_2 + 4 x_8_7_1 + 4 x_8_7_2 + 16 x_8_9_1
   + 16 x_8_9_2 + 16 x_9_4_1 + 16 x_9_4_2 + 10 x_9_6_1 + 10 x_9_6_2
   + 16 x_9_8_1 + 16 x_9_8_2 + 16 x_9_10_1 + 16 x_9_10_2 + 16 x_10_3_1
   + 16 x_10_3_2 + 16 x_10_5_1 + 16 x_10_5_2 + 11 x_10_6_1 + 11 x_10_6_2
   + 4 x_10_7_1 + 4 x_10_7_2 + 16 x_10_9_1 + 16 x_10_9_2 + 0 C_0 + 0 C_1
   + 0 C_2 + 0 C_3 + 0 C_4 + 0 C_5 + 0 C_6 + 0 C_7 + 0 C_8 + 0 C_9 + 0 C_10
   + 0 C_11 + 0 t_0 + 0 t_1 + 0 t_2 + 0 t_3 + 0 t_4 + 0 t_5 + 0 t_6 + 0 t_7
   + 0 t_8 + 0 t_9 + 0 t_10 + 0 t_11
Subject To
 cons1_1: x_0_1_1 + x_0_2_1 = 1
 cons1_2: x_0_1_2 + x_0_2_2 = 1
 cons2_1: x_0_1_1 + x_0_1_2 = 1
 cons2_2: x_0_2_1 + x_0_2_2 = 1
 cons2_3: x_1_3_1 + x_1_3_2 + x_2_3_1 + x_2_3_2 + x_4_3_1 + x_4_3_2
   + x_6_3_1 + x_6_3_2 + x_8_3_1 + x_8_3_2 + x_10_3_1 + x_10_3_2 = 1
 cons2_4: x_1_4_1 + x_1_4_2 + x_2_4_1 + x_2_4_2 + x_3_4_1 + x_3_4_2
   + x_5_4_1 + x_5_4_2 + x_7_4_1 + x_7_4_2 + x_9_4_1 + x_9_4_2 = 1
 cons2_5: x_4_5_1 + x_4_5_2 + x_6_5_1 + x_6_5_2 + x_8_5_1 + x_8_5_2
   + x_9_5_1 + x_9_5_2 + x_10_5_1 + x_10_5_2 = 1
 cons2_6: x_3_6_1 + x_3_6_2 + x_5_6_1 + x_5_6_2 + x_7_6_1 + x_7_6_2
   + x_9_6_1 + x_9_6_2 + x_10_6_1 + x_10_6_2 = 1
 cons2_7: x_3_7_1 + x_3_7_2 + x_4_7_1 + x_4_7_2 + x_6_7_1 + x_6_7_2
   + x_8_7_1 + x_8_7_2 + x_10_7_1 + x_10_7_2 = 1
 cons2_8: x_3_8_1 + x_3_8_2 + x_4_8_1 + x_4_8_2 + x_5_8_1 + x_5_8_2
   + x_7_8_1 + x_7_8_2 + x_9_8_1 + x_9_8_2 = 1
 cons2_9: x_1_9_1 + x_1_9_2 + x_2_9_1 + x_2_9_2 + x_4_9_1 + x_4_9_2
   + x_6_9_1 + x_6_9_2 + x_7_9_1 + x_7_9_2 + x_8_9_1 + x_8_9_2 + x_10_9_1
   + x_10_9_2 = 1
 cons2_10: x_1_10_1 + x_1_10_2 + x_2_10_1 + x_2_10_2 + x_3_10_1 + x_3_10_2
   + x_5_10_1 + x_5_10_2 + x_7_10_1 + x_7_10_2 + x_8_10_1 + x_8_10_2
   + x_9_10_1 + x_9_10_2 = 1
 cons3_3: x_1_3_1 + x_2_3_1 + x_4_3_1 + x_6_3_1 - x_7_4_1 - x_7_6_1
   - x_7_8_1 - x_7_9_1 - x_7_10_1 - x_7_11_1 + x_8_3_1 + x_10_3_1 = 0
 cons3_4: x_1_4_1 + x_2_4_1 + x_3_4_1 + x_5_4_1 + x_7_4_1 - x_8_3_1
   - x_8_5_1 - x_8_7_1 - x_8_9_1 - x_8_10_1 - x_8_11_1 + x_9_4_1 = 0
 cons3_5: x_4_5_1 + x_6_5_1 + x_8_5_1 - x_9_4_1 - x_9_6_1 - x_9_8_1
   - x_9_10_1 + x_10_5_1 = 0
 cons3_6: x_3_6_1 + x_5_6_1 + x_7_6_1 + x_9_6_1 - x_10_3_1 - x_10_5_1
   - x_10_7_1 - x_10_9_1 = 0
 cons3_3: x_1_3_2 + x_2_3_2 + x_4_3_2 + x_6_3_2 - x_7_4_2 - x_7_6_2
   - x_7_8_2 - x_7_9_2 - x_7_10_2 - x_7_11_2 + x_8_3_2 + x_10_3_2 = 0
 cons3_4: x_1_4_2 + x_2_4_2 + x_3_4_2 + x_5_4_2 + x_7_4_2 - x_8_3_2
   - x_8_5_2 - x_8_7_2 - x_8_9_2 - x_8_10_2 - x_8_11_2 + x_9_4_2 = 0
 cons3_5: x_4_5_2 + x_6_5_2 + x_8_5_2 - x_9_4_2 - x_9_6_2 - x_9_8_2
   - x_9_10_2 + x_10_5_2 = 0
 cons3_6: x_3_6_2 + x_5_6_2 + x_7_6_2 + x_9_6_2 - x_10_3_2 - x_10_5_2
   - x_10_7_2 - x_10_9_2 = 0
 cons4_1_1: x_0_1_1 - x_1_3_1 - x_1_4_1 - x_1_9_1 - x_1_10_1 = 0
 cons4_2_1: x_0_2_1 - x_2_3_1 - x_2_4_1 - x_2_9_1 - x_2_10_1 = 0
 cons4_3_1: x_1_3_1 + x_2_3_1 - x_3_4_1 - x_3_6_1 - x_3_7_1 - x_3_8_1
   - x_3_10_1 + x_4_3_1 + x_6_3_1 + x_8_3_1 + x_10_3_1 = 0
 cons4_4_1: x_1_4_1 + x_2_4_1 + x_3_4_1 - x_4_3_1 - x_4_5_1 - x_4_7_1
   - x_4_8_1 - x_4_9_1 + x_5_4_1 + x_7_4_1 + x_9_4_1 = 0
 cons4_5_1: x_4_5_1 - x_5_4_1 - x_5_6_1 - x_5_8_1 - x_5_10_1 + x_6_5_1
   + x_8_5_1 + x_9_5_1 + x_10_5_1 = 0
 cons4_6_1: x_3_6_1 + x_5_6_1 - x_6_3_1 - x_6_5_1 - x_6_7_1 - x_6_9_1
   + x_7_6_1 + x_9_6_1 + x_10_6_1 = 0
 cons4_7_1: x_3_7_1 + x_4_7_1 + x_6_7_1 - x_7_4_1 - x_7_6_1 - x_7_8_1
   - x_7_9_1 - x_7_10_1 + x_8_7_1 + x_10_7_1 = 0
 cons4_8_1: x_3_8_1 + x_4_8_1 + x_5_8_1 + x_7_8_1 - x_8_3_1 - x_8_5_1
   - x_8_7_1 - x_8_9_1 - x_8_10_1 + x_9_8_1 = 0
 cons4_9_1: x_1_9_1 + x_2_9_1 + x_4_9_1 + x_6_9_1 + x_7_9_1 + x_8_9_1
   - x_9_4_1 - x_9_5_1 - x_9_6_1 - x_9_8_1 - x_9_10_1 + x_10_9_1 = 0
 cons4_10_1: x_1_10_1 + x_2_10_1 + x_3_10_1 + x_5_10_1 + x_7_10_1
   + x_8_10_1 + x_9_10_1 - x_10_3_1 - x_10_5_1 - x_10_6_1 - x_10_7_1
   - x_10_9_1 = 0
 cons4_1_2: x_0_1_2 - x_1_3_2 - x_1_4_2 - x_1_9_2 - x_1_10_2 = 0
 cons4_2_2: x_0_2_2 - x_2_3_2 - x_2_4_2 - x_2_9_2 - x_2_10_2 = 0
 cons4_3_2: x_1_3_2 + x_2_3_2 - x_3_4_2 - x_3_6_2 - x_3_7_2 - x_3_8_2
   - x_3_10_2 + x_4_3_2 + x_6_3_2 + x_8_3_2 + x_10_3_2 = 0
 cons4_4_2: x_1_4_2 + x_2_4_2 + x_3_4_2 - x_4_3_2 - x_4_5_2 - x_4_7_2
   - x_4_8_2 - x_4_9_2 + x_5_4_2 + x_7_4_2 + x_9_4_2 = 0
 cons4_5_2: x_4_5_2 - x_5_4_2 - x_5_6_2 - x_5_8_2 - x_5_10_2 + x_6_5_2
   + x_8_5_2 + x_9_5_2 + x_10_5_2 = 0
 cons4_6_2: x_3_6_2 + x_5_6_2 - x_6_3_2 - x_6_5_2 - x_6_7_2 - x_6_9_2
   + x_7_6_2 + x_9_6_2 + x_10_6_2 = 0
 cons4_7_2: x_3_7_2 + x_4_7_2 + x_6_7_2 - x_7_4_2 - x_7_6_2 - x_7_8_2
   - x_7_9_2 - x_7_10_2 + x_8_7_2 + x_10_7_2 = 0
 cons4_8_2: x_3_8_2 + x_4_8_2 + x_5_8_2 + x_7_8_2 - x_8_3_2 - x_8_5_2
   - x_8_7_2 - x_8_9_2 - x_8_10_2 + x_9_8_2 = 0
 cons4_9_2: x_1_9_2 + x_2_9_2 + x_4_9_2 + x_6_9_2 + x_7_9_2 + x_8_9_2
   - x_9_4_2 - x_9_5_2 - x_9_6_2 - x_9_8_2 - x_9_10_2 + x_10_9_2 = 0
 cons4_10_2: x_1_10_2 + x_2_10_2 + x_3_10_2 + x_5_10_2 + x_7_10_2
   + x_8_10_2 + x_9_10_2 - x_10_3_2 - x_10_5_2 - x_10_6_2 - x_10_7_2
   - x_10_9_2 = 0
 R40: x_0_1_1 = 1
 R41: x_1_3_1 = 1
 R42: x_3_7_1 = 1
 R43: x_7_9_1 = 1
 R44: x_9_5_1 = 1
 R45: x_5_11_1 = 1
 R46: x_0_2_2 = 1
 R47: x_2_4_2 = 1
 R48: x_4_8_2 = 1
 R49: x_8_10_2 = 1
 R50: x_10_6_2 = 1
 R51: x_6_11_2 = 1
Bounds
 C_0 <= 1e+06
 C_1 <= 1e+06
 C_2 <= 1e+06
 C_3 <= 1e+06
 C_4 <= 1e+06
 C_5 <= 1e+06
 C_6 <= 1e+06
 C_7 <= 1e+06
 C_8 <= 1e+06
 C_9 <= 1e+06
 C_10 <= 1e+06
 C_11 <= 1e+06
 t_0 <= 1e+06
 t_1 <= 1e+06
 t_2 <= 1e+06
 t_3 <= 1e+06
 t_4 <= 1e+06
 t_5 <= 1e+06
 t_6 <= 1e+06
 t_7 <= 1e+06
 t_8 <= 1e+06
 t_9 <= 1e+06
 t_10 <= 1e+06
 t_11 <= 1e+06
Binaries
 x_0_1_1 x_0_1_2 x_0_2_1 x_0_2_2 x_1_3_1 x_1_3_2 x_1_4_1 x_1_4_2 x_1_9_1
 x_1_9_2 x_1_10_1 x_1_10_2 x_1_11_1 x_1_11_2 x_2_3_1 x_2_3_2 x_2_4_1
 x_2_4_2 x_2_9_1 x_2_9_2 x_2_10_1 x_2_10_2 x_2_11_1 x_2_11_2 x_3_4_1
 x_3_4_2 x_3_6_1 x_3_6_2 x_3_7_1 x_3_7_2 x_3_8_1 x_3_8_2 x_3_10_1 x_3_10_2
 x_4_3_1 x_4_3_2 x_4_5_1 x_4_5_2 x_4_7_1 x_4_7_2 x_4_8_1 x_4_8_2 x_4_9_1
 x_4_9_2 x_5_4_1 x_5_4_2 x_5_6_1 x_5_6_2 x_5_8_1 x_5_8_2 x_5_10_1 x_5_10_2
 x_5_11_1 x_5_11_2 x_6_3_1 x_6_3_2 x_6_5_1 x_6_5_2 x_6_7_1 x_6_7_2 x_6_9_1
 x_6_9_2 x_6_11_1 x_6_11_2 x_7_4_1 x_7_4_2 x_7_6_1 x_7_6_2 x_7_8_1 x_7_8_2
 x_7_9_1 x_7_9_2 x_7_10_1 x_7_10_2 x_7_11_1 x_7_11_2 x_8_3_1 x_8_3_2
 x_8_5_1 x_8_5_2 x_8_7_1 x_8_7_2 x_8_9_1 x_8_9_2 x_8_10_1 x_8_10_2 x_8_11_1
 x_8_11_2 x_9_4_1 x_9_4_2 x_9_5_1 x_9_5_2 x_9_6_1 x_9_6_2 x_9_8_1 x_9_8_2
 x_9_10_1 x_9_10_2 x_10_3_1 x_10_3_2 x_10_5_1 x_10_5_2 x_10_6_1 x_10_6_2
 x_10_7_1 x_10_7_2 x_10_9_1 x_10_9_2
End
